378 384 386 387 
405 411 413 414 
426 432 434 435 
443 450 452 453 
459 466 468 469 
475 482 484 485 
488 495 497 498 
502 509 511 512 
516 523 525 526 
535 541 543 544 
557 562 564 565 
578 583 585 586 
597 602 604 605 
617 622 624 625 
637 642 644 645 
659 664 666 667 
677 682 684 685 
697 702 704 705 
719 724 726 727 
737 742 744 745 
757 762 764 765 
777 782 784 785 
797 802 804 805 
817 822 824 825 
839 844 846 847 
858 863 865 866 
877 882 884 885 
897 902 904 905 
915 920 922 923 
937 942 944 945 
956 961 963 964 
975 980 982 983 
996 1001 1003 1004 
1018 1023 1025 1026 
1039 1044 1046 1047 
1059 1064 1066 1067 
1079 1084 1086 1087 
1098 1103 1105 1106 
1119 1124 1126 1127 
1139 1144 1146 1147 
1156 1161 1163 1164 
1177 1182 1184 1185 
1202 1207 1209 1210 
1250 1255 1257 1258 
1310 1315 1317 1318 
1369 1374 1376 1377 
1429 1434 1436 1437 
1489 1494 1496 1497 
